#######################################
### Exact MIP solver for the HHCRSP ###
#######################################
-- Instance file: new-instances/HHCRSP_25_5_25_1.6_C_RC.txt
-- Max threads: 4
-- Time limit: 999999 seconds
-- Use initial solution: No
Trivial flow violations prevented generating 880 variables.
Model exported.
Version identifier: 20.1.0.0 | 2020-11-10 | 9bedb6d68
CPXPARAM_Threads                                 4
CPXPARAM_TimeLimit                               999999
Tried aggregator 1 time.
LP Presolve eliminated 390 rows and 119 columns.
Reduced LP has 1138 rows, 1106 columns, and 7481 nonzeros.
Presolve time = 0.00 sec. (2.42 ticks)
Symmetry aggregator did 457 additional substitutions.

Iteration log . . .
Iteration:     1   Dual objective     =             0.000000
Iteration:    91   Dual objective     =            77.667787

Dual crossover.
  Dual:  Fixing 28 variables.
       27 DMoves:  Infeasibility  5.30280869e-15  Objective  7.76812317e+01
        0 DMoves:  Infeasibility  2.93922804e-15  Objective  7.76812317e+01
  Dual:  Pushed 1, exchanged 27.
  Primal:  Fixing 11 variables.
       10 PMoves:  Infeasibility  3.36861615e-16  Objective  7.76812317e+01
        0 PMoves:  Infeasibility  2.77555756e-16  Objective  7.76812317e+01
  Primal:  Pushed 5, exchanged 6.

Solution status from MIP model:
-- Processing time: 0.009 sec.
-- Memory used: 14.9287 MB
-- Best bound: inf
-- Obj value: 77.6812
-- Gap: inf%
-- Total distance: 233.044
-- Total tardiness: 0
-- Largest tardiness: 0
